language ESSENCE' 1.0
$ minion Nodes: 1
$ minion TotalTime: 0.000359
$ Savile Row TotalTime: 0.151
letting pain_tuple1 be [1, 1;int(1,2)]
letting pain_tuple2_tuple1 be [[12;int(1)], 
[12;int(1)];int(1,2)]
letting pain_tuple2_tuple2 be [[13;int(1)], 
[13;int(1)];int(1,2)]
